17,2	0,0	18,1	17,7	0,0	0,0	0,0	0,0	0,0	17,8
18,7	7,2	0,0	11,2	11,0	0,0	0,0	6,4	0,0	0,0
0,0	0,0	7,3	0,0	7,0	14,3	0,0	0,0	10,5	0,0
11,9	0,0	5,8	0,0	0,0	0,0	14,8	0,0	0,0	0,0
0,0	15,2	0,0	15,8	20,0	0,0	0,0	14,6	0,0	0,0
0,0	10,9	9,9	0,0	16,0	17,2	0,0	0,0	18,3	0,0
0,0	13,5	0,0	8,8	0,0	0,0	9,1	0,0	0,0	15,5
12,0	0,0	8,6	0,0	0,0	0,0	0,0	0,0	0,0	18,4
0,0	13,3	0,0	17,6	12,2	0,0	0,0	5,4	0,0	0,0
0,0	0,0	17,0	0,0	0,0	19,0	6,6	0,0	0,0	14,8
									
4,5	4,4	3,4	3,0	4,3	4,6	2,6	4,4	3,0	4,6
